114 300 247 233 238 212 235 244 203 246 217 231 217 206 238 231 248 204 239 245 205 250 246 210 202 230 204 223 205 230 232 230 233 228 213 245 215 222 212 243 217 229 223 234 235 235 239 206 239 202 200 245 201 220 229 228 250 233 200 204 237 207 235 244 235 222 238 224 244 225 216 235 203 239 244 213 249 232 219 237 234 245 205 235 214 208 237 239 215 238 243 201 245 201 245 203 223 207 202 241 232 218 226 209 232 219 222 230 200 216 241 235 235 221 244 249 